c Lollipop graph K5 with path length 5
c adversarial MDS test instance generated for Furones experiments
p edge 10 15
e 1 2
e 1 3
e 1 4
e 1 5
e 2 3
e 2 4
e 2 5
e 3 4
e 3 5
e 4 5
e 5 6
e 6 7
e 7 8
e 8 9
e 9 10
